-208.0 4.0 3.0 9.0 3.0 2.0 1.0 1.0 3.0 7.0 0.0 1.0 10.0 8.0 10.0 4.0 0.0 2.0 3.0 6.0 2.0 1.0 6.0 5.0 0.0 7.0 9.0 1.0 4.0 6.0 2.0 8.0 5.0 7.0 6.0 3.0 6.0 10.0 3.0 0.0 8.0 5.0 7.0 9.0 3.0 7.0 1.0 0.0 
4.0 -206.0 6.0 7.0 1.0 4.0 10.0 6.0 1.0 2.0 5.0 3.0 7.0 4.0 6.0 6.0 6.0 3.0 3.0 2.0 4.0 2.0 7.0 3.0 4.0 1.0 7.0 10.0 10.0 3.0 1.0 6.0 1.0 1.0 8.0 9.0 4.0 4.0 4.0 4.0 5.0 1.0 7.0 5.0 2.0 4.0 3.0 0.0 
3.0 6.0 -243.0 7.0 10.0 3.0 4.0 2.0 7.0 5.0 6.0 9.0 2.0 10.0 2.0 4.0 0.0 6.0 1.0 5.0 10.0 9.0 2.0 4.0 7.0 1.0 7.0 3.0 10.0 7.0 0.0 9.0 0.0 1.0 10.0 3.0 3.0 8.0 8.0 5.0 6.0 4.0 5.0 2.0 9.0 7.0 7.0 4.0 
9.0 7.0 7.0 -299.0 1.0 5.0 2.0 9.0 7.0 6.0 6.0 8.0 6.0 8.0 5.0 10.0 8.0 10.0 9.0 7.0 10.0 7.0 2.0 7.0 7.0 1.0 4.0 10.0 3.0 8.0 10.0 7.0 4.0 6.0 6.0 4.0 8.0 7.0 2.0 9.0 0.0 1.0 6.0 8.0 10.0 6.0 7.0 9.0 
3.0 1.0 10.0 1.0 -243.0 6.0 9.0 8.0 3.0 6.0 9.0 4.0 1.0 2.0 10.0 7.0 10.0 5.0 10.0 1.0 2.0 2.0 4.0 4.0 6.0 10.0 8.0 9.0 6.0 6.0 8.0 6.0 6.0 3.0 0.0 1.0 10.0 1.0 0.0 2.0 0.0 4.0 9.0 6.0 9.0 5.0 2.0 8.0 
2.0 4.0 3.0 5.0 6.0 -195.0 4.0 5.0 9.0 6.0 8.0 2.0 4.0 5.0 0.0 5.0 9.0 8.0 1.0 3.0 1.0 5.0 0.0 0.0 3.0 2.0 7.0 1.0 8.0 1.0 3.0 7.0 5.0 2.0 0.0 1.0 7.0 10.0 0.0 10.0 1.0 9.0 2.0 10.0 4.0 2.0 1.0 4.0 
1.0 10.0 4.0 2.0 9.0 4.0 -209.0 4.0 0.0 8.0 3.0 8.0 8.0 8.0 5.0 0.0 2.0 7.0 2.0 4.0 2.0 0.0 3.0 2.0 9.0 1.0 4.0 4.0 0.0 1.0 0.0 10.0 1.0 4.0 3.0 7.0 7.0 7.0 0.0 7.0 9.0 3.0 5.0 10.0 5.0 6.0 1.0 9.0 
1.0 6.0 2.0 9.0 8.0 5.0 4.0 -230.0 10.0 0.0 7.0 4.0 9.0 9.0 9.0 0.0 2.0 1.0 4.0 9.0 0.0 8.0 6.0 0.0 7.0 4.0 7.0 7.0 9.0 6.0 0.0 0.0 2.0 0.0 6.0 7.0 2.0 5.0 10.0 2.0 1.0 6.0 9.0 9.0 2.0 4.0 9.0 3.0 
3.0 1.0 7.0 7.0 3.0 9.0 0.0 10.0 -211.0 0.0 0.0 2.0 1.0 3.0 2.0 8.0 5.0 6.0 2.0 6.0 1.0 8.0 7.0 5.0 9.0 2.0 6.0 4.0 7.0 3.0 7.0 7.0 8.0 4.0 3.0 3.0 8.0 0.0 9.0 2.0 10.0 8.0 3.0 6.0 0.0 3.0 0.0 3.0 
7.0 2.0 5.0 6.0 6.0 6.0 8.0 0.0 0.0 -270.0 10.0 1.0 7.0 8.0 3.0 6.0 9.0 4.0 8.0 10.0 4.0 7.0 7.0 6.0 10.0 9.0 7.0 8.0 6.0 8.0 5.0 1.0 6.0 7.0 8.0 6.0 6.0 8.0 4.0 6.0 10.0 1.0 0.0 9.0 2.0 7.0 5.0 1.0 
0.0 5.0 6.0 6.0 9.0 8.0 3.0 7.0 0.0 10.0 -278.0 9.0 2.0 7.0 3.0 3.0 10.0 4.0 7.0 8.0 7.0 9.0 9.0 7.0 8.0 0.0 5.0 6.0 10.0 2.0 4.0 2.0 1.0 9.0 6.0 8.0 7.0 0.0 8.0 10.0 8.0 10.0 7.0 6.0 6.0 0.0 7.0 9.0 
1.0 3.0 9.0 8.0 4.0 2.0 8.0 4.0 2.0 1.0 9.0 -238.0 3.0 9.0 1.0 4.0 7.0 7.0 8.0 8.0 2.0 5.0 2.0 4.0 1.0 4.0 4.0 10.0 0.0 6.0 5.0 0.0 10.0 9.0 6.0 1.0 10.0 9.0 1.0 6.0 4.0 10.0 0.0 10.0 5.0 9.0 7.0 0.0 
10.0 7.0 2.0 6.0 1.0 4.0 8.0 9.0 1.0 7.0 2.0 3.0 -261.0 8.0 2.0 3.0 6.0 7.0 7.0 9.0 7.0 10.0 3.0 10.0 8.0 6.0 1.0 9.0 7.0 6.0 5.0 1.0 4.0 4.0 4.0 7.0 6.0 6.0 0.0 5.0 5.0 3.0 3.0 10.0 10.0 7.0 5.0 7.0 
8.0 4.0 10.0 8.0 2.0 5.0 8.0 9.0 3.0 8.0 7.0 9.0 8.0 -261.0 5.0 8.0 1.0 0.0 5.0 10.0 2.0 1.0 9.0 1.0 6.0 10.0 7.0 1.0 10.0 0.0 5.0 1.0 7.0 2.0 4.0 9.0 5.0 5.0 2.0 9.0 4.0 5.0 0.0 7.0 9.0 9.0 10.0 3.0 
10.0 6.0 2.0 5.0 10.0 0.0 5.0 9.0 2.0 3.0 3.0 1.0 2.0 5.0 -179.0 3.0 6.0 0.0 6.0 3.0 3.0 7.0 2.0 2.0 9.0 2.0 6.0 5.0 2.0 1.0 0.0 4.0 1.0 6.0 2.0 7.0 3.0 6.0 7.0 0.0 3.0 0.0 1.0 6.0 5.0 7.0 1.0 0.0 
4.0 6.0 4.0 10.0 7.0 5.0 0.0 0.0 8.0 6.0 3.0 4.0 3.0 8.0 3.0 -246.0 3.0 10.0 10.0 1.0 2.0 4.0 8.0 2.0 9.0 8.0 9.0 10.0 1.0 7.0 2.0 3.0 9.0 9.0 9.0 4.0 9.0 2.0 9.0 3.0 9.0 0.0 10.0 0.0 1.0 5.0 0.0 7.0 
0.0 6.0 0.0 8.0 10.0 9.0 2.0 2.0 5.0 9.0 10.0 7.0 6.0 1.0 6.0 3.0 -254.0 8.0 8.0 9.0 9.0 8.0 6.0 0.0 4.0 3.0 7.0 2.0 7.0 6.0 5.0 8.0 10.0 5.0 4.0 1.0 0.0 5.0 10.0 3.0 9.0 1.0 10.0 0.0 8.0 5.0 2.0 7.0 
2.0 3.0 6.0 10.0 5.0 8.0 7.0 1.0 6.0 4.0 4.0 7.0 7.0 0.0 0.0 10.0 8.0 -214.0 1.0 0.0 2.0 7.0 9.0 3.0 8.0 6.0 10.0 3.0 7.0 4.0 7.0 4.0 6.0 10.0 1.0 2.0 9.0 0.0 4.0 7.0 2.0 2.0 1.0 2.0 4.0 1.0 4.0 0.0 
3.0 3.0 1.0 9.0 10.0 1.0 2.0 4.0 2.0 8.0 7.0 8.0 7.0 5.0 6.0 10.0 8.0 1.0 -200.0 0.0 0.0 8.0 1.0 6.0 0.0 10.0 0.0 6.0 1.0 9.0 5.0 0.0 1.0 10.0 6.0 0.0 1.0 2.0 9.0 4.0 1.0 5.0 4.0 3.0 8.0 2.0 3.0 0.0 
6.0 2.0 5.0 7.0 1.0 3.0 4.0 9.0 6.0 10.0 8.0 8.0 9.0 10.0 3.0 1.0 9.0 0.0 0.0 -255.0 1.0 0.0 3.0 7.0 5.0 10.0 4.0 7.0 2.0 6.0 9.0 3.0 9.0 10.0 10.0 3.0 0.0 3.0 5.0 3.0 10.0 5.0 9.0 5.0 7.0 10.0 2.0 6.0 
2.0 4.0 10.0 10.0 2.0 1.0 2.0 0.0 1.0 4.0 7.0 2.0 7.0 2.0 3.0 2.0 9.0 2.0 0.0 1.0 -200.0 9.0 7.0 9.0 0.0 5.0 0.0 6.0 7.0 2.0 5.0 7.0 0.0 4.0 6.0 8.0 5.0 1.0 8.0 10.0 9.0 2.0 2.0 1.0 6.0 0.0 9.0 1.0 
1.0 2.0 9.0 7.0 2.0 5.0 0.0 8.0 8.0 7.0 9.0 5.0 10.0 1.0 7.0 4.0 8.0 7.0 8.0 0.0 9.0 -262.0 10.0 9.0 5.0 10.0 0.0 4.0 0.0 9.0 5.0 4.0 5.0 9.0 9.0 4.0 9.0 6.0 0.0 3.0 6.0 7.0 10.0 1.0 7.0 5.0 6.0 2.0 
6.0 7.0 2.0 2.0 4.0 0.0 3.0 6.0 7.0 7.0 9.0 2.0 3.0 9.0 2.0 8.0 6.0 9.0 1.0 3.0 7.0 10.0 -245.0 8.0 7.0 7.0 6.0 1.0 9.0 2.0 6.0 0.0 3.0 7.0 7.0 5.0 6.0 6.0 9.0 0.0 0.0 2.0 9.0 3.0 4.0 5.0 10.0 10.0 
5.0 3.0 4.0 7.0 4.0 0.0 2.0 0.0 5.0 6.0 7.0 4.0 10.0 1.0 2.0 2.0 0.0 3.0 6.0 7.0 9.0 9.0 8.0 -233.0 7.0 3.0 5.0 5.0 5.0 9.0 6.0 2.0 0.0 1.0 0.0 8.0 6.0 1.0 9.0 7.0 4.0 7.0 10.0 8.0 1.0 10.0 8.0 7.0 
0.0 4.0 7.0 7.0 6.0 3.0 9.0 7.0 9.0 10.0 8.0 1.0 8.0 6.0 9.0 9.0 4.0 8.0 0.0 5.0 0.0 5.0 7.0 7.0 -274.0 6.0 7.0 7.0 1.0 0.0 1.0 10.0 9.0 7.0 9.0 9.0 3.0 7.0 1.0 4.0 6.0 3.0 9.0 8.0 9.0 7.0 3.0 9.0 
7.0 1.0 1.0 1.0 10.0 2.0 1.0 4.0 2.0 9.0 0.0 4.0 6.0 10.0 2.0 8.0 3.0 6.0 10.0 10.0 5.0 10.0 7.0 3.0 6.0 -253.0 7.0 2.0 3.0 0.0 7.0 0.0 10.0 10.0 1.0 8.0 2.0 10.0 8.0 9.0 9.0 7.0 5.0 10.0 1.0 4.0 2.0 10.0 
9.0 7.0 7.0 4.0 8.0 7.0 4.0 7.0 6.0 7.0 5.0 4.0 1.0 7.0 6.0 9.0 7.0 10.0 0.0 4.0 0.0 0.0 6.0 5.0 7.0 7.0 -237.0 8.0 10.0 2.0 10.0 1.0 10.0 3.0 5.0 5.0 6.0 0.0 6.0 0.0 3.0 1.0 2.0 1.0 9.0 5.0 4.0 2.0 
1.0 10.0 3.0 10.0 9.0 1.0 4.0 7.0 4.0 8.0 6.0 10.0 9.0 1.0 5.0 10.0 2.0 3.0 6.0 7.0 6.0 4.0 1.0 5.0 7.0 2.0 8.0 -255.0 10.0 4.0 4.0 8.0 9.0 8.0 5.0 10.0 6.0 4.0 3.0 1.0 7.0 6.0 6.0 2.0 8.0 1.0 3.0 1.0 
4.0 10.0 10.0 3.0 6.0 8.0 0.0 9.0 7.0 6.0 10.0 0.0 7.0 10.0 2.0 1.0 7.0 7.0 1.0 2.0 7.0 0.0 9.0 5.0 1.0 3.0 10.0 10.0 -241.0 5.0 2.0 2.0 5.0 3.0 2.0 5.0 6.0 1.0 0.0 2.0 6.0 10.0 0.0 8.0 5.0 4.0 10.0 10.0 
6.0 3.0 7.0 8.0 6.0 1.0 1.0 6.0 3.0 8.0 2.0 6.0 6.0 0.0 1.0 7.0 6.0 4.0 9.0 6.0 2.0 9.0 2.0 9.0 0.0 0.0 2.0 4.0 5.0 -196.0 1.0 4.0 0.0 0.0 2.0 1.0 0.0 8.0 3.0 0.0 7.0 4.0 10.0 7.0 5.0 1.0 7.0 7.0 
2.0 1.0 0.0 10.0 8.0 3.0 0.0 0.0 7.0 5.0 4.0 5.0 5.0 5.0 0.0 2.0 5.0 7.0 5.0 9.0 5.0 5.0 6.0 6.0 1.0 7.0 10.0 4.0 2.0 1.0 -226.0 8.0 0.0 2.0 8.0 10.0 5.0 9.0 2.0 0.0 10.0 5.0 0.0 9.0 5.0 6.0 8.0 9.0 
8.0 6.0 9.0 7.0 6.0 7.0 10.0 0.0 7.0 1.0 2.0 0.0 1.0 1.0 4.0 3.0 8.0 4.0 0.0 3.0 7.0 4.0 0.0 2.0 10.0 0.0 1.0 8.0 2.0 4.0 8.0 -206.0 7.0 10.0 2.0 10.0 3.0 0.0 5.0 0.0 9.0 4.0 5.0 8.0 2.0 4.0 0.0 4.0 
5.0 1.0 0.0 4.0 6.0 5.0 1.0 2.0 8.0 6.0 1.0 10.0 4.0 7.0 1.0 9.0 10.0 6.0 1.0 9.0 0.0 5.0 3.0 0.0 9.0 10.0 10.0 9.0 5.0 0.0 0.0 7.0 -237.0 8.0 1.0 6.0 4.0 7.0 8.0 7.0 3.0 3.0 8.0 0.0 5.0 10.0 5.0 8.0 
7.0 1.0 1.0 6.0 3.0 2.0 4.0 0.0 4.0 7.0 9.0 9.0 4.0 2.0 6.0 9.0 5.0 10.0 10.0 10.0 4.0 9.0 7.0 1.0 7.0 10.0 3.0 8.0 3.0 0.0 2.0 10.0 8.0 -251.0 4.0 10.0 9.0 5.0 8.0 0.0 4.0 1.0 0.0 9.0 0.0 5.0 7.0 8.0 
6.0 8.0 10.0 6.0 0.0 0.0 3.0 6.0 3.0 8.0 6.0 6.0 4.0 4.0 2.0 9.0 4.0 1.0 6.0 10.0 6.0 9.0 7.0 0.0 9.0 1.0 5.0 5.0 2.0 2.0 8.0 2.0 1.0 4.0 -229.0 10.0 10.0 2.0 8.0 3.0 3.0 1.0 10.0 2.0 3.0 7.0 6.0 1.0 
3.0 9.0 3.0 4.0 1.0 1.0 7.0 7.0 3.0 6.0 8.0 1.0 7.0 9.0 7.0 4.0 1.0 2.0 0.0 3.0 8.0 4.0 5.0 8.0 9.0 8.0 5.0 10.0 5.0 1.0 10.0 10.0 6.0 10.0 10.0 -241.0 2.0 5.0 5.0 3.0 6.0 9.0 2.0 3.0 4.0 3.0 4.0 0.0 
6.0 4.0 3.0 8.0 10.0 7.0 7.0 2.0 8.0 6.0 7.0 10.0 6.0 5.0 3.0 9.0 0.0 9.0 1.0 0.0 5.0 9.0 6.0 6.0 3.0 2.0 6.0 6.0 6.0 0.0 5.0 3.0 4.0 9.0 10.0 2.0 -245.0 4.0 9.0 4.0 1.0 9.0 4.0 4.0 2.0 8.0 6.0 1.0 
10.0 4.0 8.0 7.0 1.0 10.0 7.0 5.0 0.0 8.0 0.0 9.0 6.0 5.0 6.0 2.0 5.0 0.0 2.0 3.0 1.0 6.0 6.0 1.0 7.0 10.0 0.0 4.0 1.0 8.0 9.0 0.0 7.0 5.0 2.0 5.0 4.0 -210.0 0.0 2.0 10.0 4.0 1.0 7.0 1.0 1.0 9.0 1.0 
3.0 4.0 8.0 2.0 0.0 0.0 0.0 10.0 9.0 4.0 8.0 1.0 0.0 2.0 7.0 9.0 10.0 4.0 9.0 5.0 8.0 0.0 9.0 9.0 1.0 8.0 6.0 3.0 0.0 3.0 2.0 5.0 8.0 8.0 8.0 5.0 9.0 0.0 -218.0 2.0 5.0 5.0 3.0 5.0 2.0 3.0 4.0 2.0 
0.0 4.0 5.0 9.0 2.0 10.0 7.0 2.0 2.0 6.0 10.0 6.0 5.0 9.0 0.0 3.0 3.0 7.0 4.0 3.0 10.0 3.0 0.0 7.0 4.0 9.0 0.0 1.0 2.0 0.0 0.0 0.0 7.0 0.0 3.0 3.0 4.0 2.0 2.0 -169.0 1.0 0.0 0.0 0.0 3.0 1.0 1.0 9.0 
8.0 5.0 6.0 0.0 0.0 1.0 9.0 1.0 10.0 10.0 8.0 4.0 5.0 4.0 3.0 9.0 9.0 2.0 1.0 10.0 9.0 6.0 0.0 4.0 6.0 9.0 3.0 7.0 6.0 7.0 10.0 9.0 3.0 4.0 3.0 6.0 1.0 10.0 5.0 1.0 -252.0 0.0 7.0 1.0 9.0 8.0 7.0 6.0 
5.0 1.0 4.0 1.0 4.0 9.0 3.0 6.0 8.0 1.0 10.0 10.0 3.0 5.0 0.0 0.0 1.0 2.0 5.0 5.0 2.0 7.0 2.0 7.0 3.0 7.0 1.0 6.0 10.0 4.0 5.0 4.0 3.0 1.0 1.0 9.0 9.0 4.0 5.0 0.0 0.0 -197.0 3.0 4.0 1.0 7.0 7.0 2.0 
7.0 7.0 5.0 6.0 9.0 2.0 5.0 9.0 3.0 0.0 7.0 0.0 3.0 0.0 1.0 10.0 10.0 1.0 4.0 9.0 2.0 10.0 9.0 10.0 9.0 5.0 2.0 6.0 0.0 10.0 0.0 5.0 8.0 0.0 10.0 2.0 4.0 1.0 3.0 0.0 7.0 3.0 -213.0 1.0 1.0 1.0 5.0 1.0 
9.0 5.0 2.0 8.0 6.0 10.0 10.0 9.0 6.0 9.0 6.0 10.0 10.0 7.0 6.0 0.0 0.0 2.0 3.0 5.0 1.0 1.0 3.0 8.0 8.0 10.0 1.0 2.0 8.0 7.0 9.0 8.0 0.0 9.0 2.0 3.0 4.0 7.0 5.0 0.0 1.0 4.0 1.0 -244.0 10.0 2.0 7.0 0.0 
3.0 2.0 9.0 10.0 9.0 4.0 5.0 2.0 0.0 2.0 6.0 5.0 10.0 9.0 5.0 1.0 8.0 4.0 8.0 7.0 6.0 7.0 4.0 1.0 9.0 1.0 9.0 8.0 5.0 5.0 5.0 2.0 5.0 0.0 3.0 4.0 2.0 1.0 2.0 3.0 9.0 1.0 1.0 10.0 -221.0 6.0 0.0 3.0 
7.0 4.0 7.0 6.0 5.0 2.0 6.0 4.0 3.0 7.0 0.0 9.0 7.0 9.0 7.0 5.0 5.0 1.0 2.0 10.0 0.0 5.0 5.0 10.0 7.0 4.0 5.0 1.0 4.0 1.0 6.0 4.0 10.0 5.0 7.0 3.0 8.0 1.0 3.0 1.0 8.0 7.0 1.0 2.0 6.0 -225.0 3.0 2.0 
1.0 3.0 7.0 7.0 2.0 1.0 1.0 9.0 0.0 5.0 7.0 7.0 5.0 10.0 1.0 0.0 2.0 4.0 3.0 2.0 9.0 6.0 10.0 8.0 3.0 2.0 4.0 3.0 10.0 7.0 8.0 0.0 5.0 7.0 6.0 4.0 6.0 9.0 4.0 1.0 7.0 7.0 5.0 7.0 0.0 3.0 -220.0 2.0 
0.0 0.0 4.0 9.0 8.0 4.0 9.0 3.0 3.0 1.0 9.0 0.0 7.0 3.0 0.0 7.0 7.0 0.0 0.0 6.0 1.0 2.0 10.0 7.0 9.0 10.0 2.0 1.0 10.0 7.0 9.0 4.0 8.0 8.0 1.0 0.0 1.0 1.0 2.0 9.0 6.0 2.0 1.0 0.0 3.0 2.0 2.0 -198.0 

